c defined variables: 8 9 10 11 12 13 14 15 16 17 18 19 20 21 22 23 24 25 26 27 28 29 30 31 32 33 50 52 53 54 55 57 60 61 62 63 64 65 66 67 68 
p cnf 320 475
a 1 2 3 4 5 6 7 39 40 41 42 43 44 45 46 0
e 8 9 10 11 12 13 14 15 16 17 18 19 20 21 22 23 24 25 26 27 28 29 30 31 32 33 50 52 53 54 55 57 60 61 62 63 64 65 66 67 68 250 251 252 253 254 255 256 257 258 259 260 261 262 263 264 265 266 267 268 269 270 271 272 273 274 275 276 277 278 279 280 281 282 283 284 285 286 287 288 289 290 291 292 293 294 295 296 297 298 299 300 301 302 303 304 305 306 307 308 309 310 311 312 313 314 315 316 317 318 319 320 0
d 38 39 40 0
d 37 41 42 0
d 36 43 44 41 42 0
d 35 43 44 41 42 45 46 0
d 34 39 45 40 46 43 44 41 42 0
d 47 1 2 3 4 5 6 7 39 40 41 42 43 44 45 46 0
d 48 1 2 3 4 5 6 7 39 40 41 42 43 44 45 46 0
d 49 1 2 3 4 5 6 7 39 40 41 42 43 44 45 46 0
d 51 1 2 3 4 5 6 7 39 40 41 42 43 44 45 46 0
d 56 1 2 3 4 5 6 7 39 40 41 42 43 44 45 46 0
d 58 1 2 3 4 5 6 7 39 40 41 42 43 44 45 46 0
d 59 1 2 3 4 5 6 7 39 40 41 42 43 44 45 46 0
250 -8 0
-250 8 0
251 -9 0
-251 9 0
-252 -10 0
252 10 0
253 -11 0
-253 11 0
254 -12 0
-254 12 0
-255 -13 0
255 13 0
256 -14 0
-256 14 0
257 -15 0
-257 15 0
-258 -16 0
258 16 0
259 -17 0
-259 17 0
260 -18 0
-260 18 0
-261 -19 0
261 19 0
262 -20 0
-262 20 0
263 -21 0
-263 21 0
-264 -22 0
264 22 0
-265 -23 0
265 23 0
266 -24 0
-266 24 0
268 -25 0
-268 25 0
270 -26 0
-270 26 0
-272 -27 0
272 27 0
273 -28 0
-273 28 0
274 -29 0
-274 29 0
276 -30 0
-276 30 0
277 -31 0
-277 31 0
278 -32 0
-278 32 0
-282 -33 0
282 33 0
277 -50 0
-277 50 0
-286 -52 0
286 52 0
250 -53 0
-250 53 0
251 -54 0
-251 54 0
-287 -55 0
287 55 0
290 -57 0
-290 57 0
293 -60 0
-293 60 0
296 -61 0
-296 61 0
299 -62 0
-299 62 0
302 -63 0
-302 63 0
308 -64 0
-308 64 0
311 -65 0
-311 65 0
314 -66 0
-314 66 0
317 -67 0
-317 67 0
320 -68 0
-320 68 0
-8 1 0
-8 4 0
-1 -4 8 0
-9 -1 0
-9 -4 0
1 4 9 0
-8 10 0
-9 10 0
-10 8 9 0
-11 7 0
-11 10 0
-7 -10 11 0
-12 -7 0
-12 -10 0
7 10 12 0
-11 13 0
-12 13 0
-13 11 12 0
-14 4 0
-14 7 0
-4 -7 14 0
-15 1 0
-15 -13 0
-1 13 15 0
-14 16 0
-15 16 0
-16 14 15 0
-17 3 0
-17 6 0
-3 -6 17 0
-18 -3 0
-18 -6 0
3 6 18 0
-17 19 0
-18 19 0
-19 17 18 0
-20 16 0
-20 19 0
-16 -19 20 0
-21 -16 0
-21 -19 0
16 19 21 0
-20 22 0
-21 22 0
-22 20 21 0
-2 23 0
-5 23 0
-23 2 5 0
-24 2 0
-24 5 0
-2 -5 24 0
-25 3 0
-25 -22 0
-25 23 0
-3 22 -23 25 0
-26 6 0
-26 16 0
-26 23 0
-6 -16 -23 26 0
-24 27 0
-25 27 0
-26 27 0
-27 24 25 26 0
-28 -27 0
-28 23 0
27 -23 28 0
-29 3 0
-29 6 0
-29 -27 0
-3 -6 27 29 0
-30 -27 0
-30 -22 0
-30 16 0
27 22 -16 30 0
-31 2 0
-31 3 0
-31 5 0
-31 6 0
-2 -3 -5 -6 31 0
-32 2 0
-32 5 0
-32 -22 0
-32 16 0
-2 -5 22 -16 32 0
-28 33 0
-29 33 0
-30 33 0
-31 33 0
-32 33 0
-33 28 29 30 31 32 0
-47 -34 0
-47 38 0
34 -38 47 0
-48 3 0
-48 6 0
-48 -34 0
-3 -6 34 48 0
-49 -34 0
-49 -35 0
-49 36 0
34 35 -36 49 0
-50 2 0
-50 3 0
-50 5 0
-50 6 0
-2 -3 -5 -6 50 0
-51 2 0
-51 5 0
-51 -35 0
-51 36 0
-2 -5 35 -36 51 0
-47 52 0
-48 52 0
-49 52 0
-50 52 0
-51 52 0
-52 47 48 49 50 51 0
-53 1 0
-53 4 0
-1 -4 53 0
-54 -1 0
-54 -4 0
1 4 54 0
-53 55 0
-54 55 0
-55 53 54 0
-56 -27 34 0
-56 27 -34 0
56 -27 -34 0
56 27 34 0
-57 -33 52 0
-57 33 -52 0
57 -33 -52 0
57 33 52 0
-58 -22 35 0
-58 22 -35 0
58 -22 -35 0
58 22 35 0
-59 -13 37 0
-59 13 -37 0
59 -13 -37 0
59 13 37 0
-56 -57 -58 -59 60 0
-60 56 0
-60 57 0
-60 58 0
-60 59 0
-2 -39 -61 0
-2 39 61 0
2 -39 61 0
2 39 -61 0
-5 -40 -62 0
-5 40 62 0
5 -40 62 0
5 40 -62 0
-7 -41 -63 0
-7 41 63 0
7 -41 63 0
7 41 -63 0
-55 -42 -64 0
-55 42 64 0
55 -42 64 0
55 42 -64 0
-1 -43 -65 0
-1 43 65 0
1 -43 65 0
1 43 -65 0
-4 -44 -66 0
-4 44 66 0
4 -44 66 0
4 44 -66 0
-3 -45 -67 0
-3 45 67 0
3 -45 67 0
3 45 -67 0
-6 -46 -68 0
-6 46 68 0
6 -46 68 0
6 46 -68 0
61 62 63 64 65 66 67 68 60 0
1 -250 0
4 -250 0
-1 -4 250 0
-1 -251 0
-4 -251 0
1 4 251 0
-8 -252 0
-9 -252 0
8 9 252 0
7 -253 0
10 -253 0
-7 -10 253 0
-7 -254 0
-10 -254 0
7 10 254 0
-11 -255 0
-12 -255 0
11 12 255 0
4 -256 0
7 -256 0
-4 -7 256 0
1 -257 0
-13 -257 0
-1 13 257 0
-14 -258 0
-15 -258 0
14 15 258 0
3 -259 0
6 -259 0
-3 -6 259 0
-3 -260 0
-6 -260 0
3 6 260 0
-17 -261 0
-18 -261 0
17 18 261 0
16 -262 0
19 -262 0
-16 -19 262 0
-16 -263 0
-19 -263 0
16 19 263 0
-20 -264 0
-21 -264 0
20 21 264 0
-2 -265 0
-5 -265 0
2 5 265 0
2 -266 0
5 -266 0
-2 -5 266 0
3 -267 0
-22 -267 0
-3 22 267 0
23 -268 0
267 -268 0
-23 -267 268 0
6 -269 0
16 -269 0
-6 -16 269 0
23 -270 0
269 -270 0
-23 -269 270 0
-24 -271 0
-25 -271 0
24 25 271 0
-26 -272 0
271 -272 0
26 -271 272 0
23 -273 0
-27 -273 0
-23 27 273 0
-27 -274 0
259 -274 0
27 -259 274 0
16 -275 0
-22 -275 0
-16 22 275 0
-27 -276 0
275 -276 0
27 -275 276 0
259 -277 0
266 -277 0
-259 -266 277 0
266 -278 0
275 -278 0
-266 -275 278 0
-28 -279 0
-29 -279 0
28 29 279 0
-30 -280 0
-31 -280 0
30 31 280 0
-32 -281 0
280 -281 0
32 -280 281 0
279 -282 0
281 -282 0
-279 -281 282 0
-47 -283 0
-48 -283 0
47 48 283 0
-49 -284 0
-50 -284 0
49 50 284 0
-51 -285 0
284 -285 0
51 -284 285 0
283 -286 0
285 -286 0
-283 -285 286 0
-53 -287 0
-54 -287 0
53 54 287 0
33 -288 0
-52 -288 0
-33 52 288 0
-33 -289 0
52 -289 0
33 -52 289 0
-288 -290 0
-289 -290 0
288 289 290 0
56 -291 0
57 -291 0
-56 -57 291 0
58 -292 0
59 -292 0
-58 -59 292 0
291 -293 0
292 -293 0
-291 -292 293 0
-2 -294 0
-39 -294 0
2 39 294 0
2 -295 0
39 -295 0
-2 -39 295 0
-294 -296 0
-295 -296 0
294 295 296 0
-5 -297 0
-40 -297 0
5 40 297 0
5 -298 0
40 -298 0
-5 -40 298 0
-297 -299 0
-298 -299 0
297 298 299 0
-7 -300 0
-41 -300 0
7 41 300 0
7 -301 0
41 -301 0
-7 -41 301 0
-300 -302 0
-301 -302 0
300 301 302 0
-250 -303 0
-251 -303 0
250 251 303 0
-42 -304 0
55 -304 0
42 -55 304 0
-303 -305 0
-304 -305 0
303 304 305 0
42 -306 0
-55 -306 0
-42 55 306 0
303 -307 0
-306 -307 0
-303 306 307 0
-305 -308 0
-307 -308 0
305 307 308 0
-1 -309 0
-43 -309 0
1 43 309 0
1 -310 0
43 -310 0
-1 -43 310 0
-309 -311 0
-310 -311 0
309 310 311 0
-4 -312 0
-44 -312 0
4 44 312 0
4 -313 0
44 -313 0
-4 -44 313 0
-312 -314 0
-313 -314 0
312 313 314 0
-3 -315 0
-45 -315 0
3 45 315 0
3 -316 0
45 -316 0
-3 -45 316 0
-315 -317 0
-316 -317 0
315 316 317 0
-6 -318 0
-46 -318 0
6 46 318 0
6 -319 0
46 -319 0
-6 -46 319 0
-318 -320 0
-319 -320 0
318 319 320 0
